
Gurobi 11.0.0 (linux64) logging started Mon Jul 22 11:02:24 2024

Set parameter LogFile to value "/lustre1/scratch/348/vsc34888/JointResearch/05.Models/06.Benchmarking/M.Random_forest/RTS24_mod1_ByStages_nc10/openStarNet_RTS24_mod1_ByStages_nc10.log"
Set parameter Method to value 2
Set parameter MIPFocus to value 1
Set parameter Presolve to value 2
Set parameter RINS to value 100
Set parameter MIPGap to value 0.01
Set parameter Threads to value 36
Set parameter TimeLimit to value 259200
Set parameter IterationLimit to value 760000000
Gurobi Optimizer version 11.0.0 build v11.0.0rc2 (linux64 - "Rocky Linux 8.9 (Green Obsidian)")

CPU model: Intel(R) Xeon(R) Gold 6240 CPU @ 2.60GHz, instruction set [SSE2|AVX|AVX2|AVX512]
Thread count: 36 physical cores, 36 logical processors, using up to 36 threads

Optimize a model with 3553 rows, 2423 columns and 9690 nonzeros
Model fingerprint: 0x5ef3bdec
Variable types: 2402 continuous, 21 integer (21 binary)
Coefficient statistics:
  Matrix range     [9e-03, 4e+03]
  Objective range  [1e+00, 1e+00]
  Bounds range     [6e-05, 2e+00]
  RHS range        [6e-05, 1e+00]
Presolve removed 2115 rows and 1218 columns
Presolve time: 0.05s
Presolved: 1438 rows, 1205 columns, 5192 nonzeros
Variable types: 1184 continuous, 21 integer (21 binary)
Found heuristic solution: objective 76.4174315
Root relaxation presolve removed 2 rows and 2 columns
Root relaxation presolved: 1436 rows, 1203 columns, 5188 nonzeros

Root barrier log...

Ordering time: 0.03s

Barrier statistics:
 AA' NZ     : 2.391e+04
 Factor NZ  : 1.201e+05 (roughly 2 MB of memory)
 Factor Ops : 1.517e+07 (less than 1 second per iteration)
 Threads    : 36

                  Objective                Residual
Iter       Primal          Dual         Primal    Dual     Compl     Time
   0   2.71047159e+06 -4.88187917e+07  2.18e+01 1.13e+03  1.22e+05     0s
   1   7.69355329e+05 -2.70398016e+07  6.19e+00 1.10e+01  3.27e+04     0s
   2   3.11607158e+04 -1.11535742e+07  3.07e-01 4.28e-10  4.14e+03     0s
   3   7.42354849e+03 -1.51752058e+06  3.02e-02 4.37e-11  4.77e+02     0s
   4   3.98104828e+03 -4.75238440e+04  7.30e-05 2.18e-11  1.52e+01     0s
   5   1.29548843e+03 -9.70133872e+03  6.82e-08 1.16e-11  3.24e+00     0s
   6   4.88887682e+02 -3.27502482e+03  9.12e-09 7.28e-12  1.11e+00     0s
   7   2.39339087e+02 -7.82706668e+02  2.18e-09 7.28e-12  3.02e-01     0s
   8   8.52651643e+01 -7.07412516e+01  6.84e-11 7.28e-12  4.60e-02     0s
   9   5.83244229e+01 -1.78444332e+01  2.26e-11 7.28e-12  2.25e-02     0s
  10   5.07494547e+01  2.34915018e+01  1.16e-11 3.64e-12  8.04e-03     0s
  11   4.64224729e+01  3.61402385e+01  5.67e-12 7.28e-12  3.03e-03     0s
  12   4.43720339e+01  3.79557073e+01  3.01e-12 3.64e-12  1.89e-03     0s
  13   4.25628932e+01  4.15588346e+01  2.31e-12 3.64e-12  2.96e-04     0s
  14   4.22042418e+01  4.19514629e+01  6.53e-12 7.28e-12  7.46e-05     0s
  15   4.21163875e+01  4.20217593e+01  8.59e-12 7.28e-12  2.79e-05     0s
  16   4.20627617e+01  4.20333824e+01  1.10e-11 7.28e-12  8.67e-06     0s
  17   4.20557815e+01  4.20424428e+01  6.80e-12 7.28e-12  3.94e-06     0s
  18   4.20447523e+01  4.20440006e+01  2.78e-12 3.64e-12  2.22e-07     0s
  19   4.20441879e+01  4.20440763e+01  8.23e-11 3.64e-12  3.29e-08     0s
  20   4.20441372e+01  4.20441104e+01  7.60e-11 3.64e-12  7.91e-09     0s
  21   4.20441137e+01  4.20441136e+01  5.99e-10 7.28e-12  1.70e-11     0s

Barrier solved model in 21 iterations and 0.32 seconds (0.06 work units)
Optimal objective 4.20441137e+01


Root relaxation: objective 4.204411e+01, 181 iterations, 0.20 seconds (0.04 work units)

    Nodes    |    Current Node    |     Objective Bounds      |     Work
 Expl Unexpl |  Obj  Depth IntInf | Incumbent    BestBd   Gap | It/Node Time

     0     0   42.04411    0   12   76.41743   42.04411  45.0%     -    0s
H    0     0                      69.8382652   42.35356  39.4%     -    0s
     0     0   42.35356    0   10   69.83827   42.35356  39.4%     -    0s
H    0     0                      68.2168658   42.43317  37.8%     -    0s
     0     0   42.68282    0   10   68.21687   42.68282  37.4%     -    0s
H    0     0                      65.4379412   42.68282  34.8%     -    0s
     0     0   42.68282    0    9   65.43794   42.68282  34.8%     -    0s
H    0     0                      64.2072839   42.68282  33.5%     -    0s
     0     0   42.68282    0    9   64.20728   42.68282  33.5%     -    0s
H    0     0                      63.0969714   42.73744  32.3%     -    0s
     0     0   42.87186    0    7   63.09697   42.87186  32.1%     -    0s
     0     0   43.85486    0    7   63.09697   43.85486  30.5%     -    0s
     0     0   44.56210    0    8   63.09697   44.56210  29.4%     -    0s
H    0     0                      54.0096161   44.56210  17.5%     -    0s
     0     2   44.56210    0    8   54.00962   44.56210  17.5%     -    0s
H  130    69                      53.9470249   46.45101  13.9%  43.7    1s

Cutting planes:
  Gomory: 3
  Implied bound: 1
  MIR: 18

Explored 435 nodes (14694 simplex iterations) in 1.53 seconds (1.22 work units)
Thread count was 36 (of 36 available processors)

Solution count 8: 53.947 54.0096 63.097 ... 76.4174

Optimal solution found (tolerance 1.00e-02)
Best objective 5.394702493734e+01, best bound 5.394702493734e+01, gap 0.0000%

Gurobi 11.0.0 (linux64) logging started Mon Jul 22 11:02:26 2024

Set parameter LogFile to value "/lustre1/scratch/348/vsc34888/JointResearch/05.Models/06.Benchmarking/M.Random_forest/RTS24_mod1_ByStages_nc10/openStarNet_RTS24_mod1_ByStages_nc10.log"
Set parameter Method to value 2
Set parameter MIPFocus to value 1
Set parameter Presolve to value 2
Set parameter RINS to value 100
Set parameter MIPGap to value 0.01
Set parameter Threads to value 36
Set parameter TimeLimit to value 259200
Set parameter IterationLimit to value 760000000
Gurobi Optimizer version 11.0.0 build v11.0.0rc2 (linux64 - "Rocky Linux 8.9 (Green Obsidian)")

CPU model: Intel(R) Xeon(R) Gold 6240 CPU @ 2.60GHz, instruction set [SSE2|AVX|AVX2|AVX512]
Thread count: 36 physical cores, 36 logical processors, using up to 36 threads

Optimize a model with 3553 rows, 2402 columns and 8829 nonzeros
Model fingerprint: 0xf9a10086
Coefficient statistics:
  Matrix range     [9e-03, 4e+03]
  Objective range  [1e+00, 1e+00]
  Bounds range     [6e-05, 2e+00]
  RHS range        [6e-05, 1e+01]
Presolve removed 2980 rows and 1373 columns
Presolve time: 0.00s
Presolved: 573 rows, 1049 columns, 2468 nonzeros

Ordering time: 0.00s

Barrier statistics:
 AA' NZ     : 1.310e+03
 Factor NZ  : 4.730e+03 (roughly 1 MB of memory)
 Factor Ops : 5.702e+04 (less than 1 second per iteration)
 Threads    : 1

                  Objective                Residual
Iter       Primal          Dual         Primal    Dual     Compl     Time
   0   8.08039798e+05 -1.26894353e+07  5.30e+00 3.12e+03  4.51e+04     0s
   1   6.73248302e+04 -7.38592324e+06  3.59e-01 3.95e-11  6.04e+03     0s
   2   3.01615769e+04 -1.90264228e+06  6.92e-02 4.90e-11  1.23e+03     0s
   3   1.40680670e+04 -1.94674086e+05  4.02e-04 2.72e-11  1.16e+02     0s
   4   3.49895823e+03 -1.31265299e+04  1.07e-08 7.28e-12  9.27e+00     0s
   5   6.43624986e+02 -3.30884811e+03  4.46e-10 1.46e-11  2.20e+00     0s
   6   3.04046400e+02 -1.11157087e+03  5.70e-11 3.64e-12  7.89e-01     0s
   7   1.17452969e+02 -1.55747108e+02  2.35e-12 1.46e-11  1.52e-01     0s
   8   6.38183279e+01  2.51175205e+01  1.46e-13 7.28e-12  2.16e-02     0s
   9   5.57253428e+01  4.73547622e+01  7.88e-14 7.28e-12  4.67e-03     0s
  10   5.44789275e+01  5.21261034e+01  1.00e-12 7.28e-12  1.31e-03     0s
  11   5.40389183e+01  5.36280848e+01  8.74e-13 1.46e-11  2.29e-04     0s
  12   5.39548429e+01  5.39143617e+01  8.70e-13 7.28e-12  2.26e-05     0s
  13   5.39473031e+01  5.39467208e+01  8.20e-14 1.46e-11  3.25e-07     0s
  14   5.39470252e+01  5.39470246e+01  2.67e-13 1.46e-11  3.25e-10     0s
  15   5.39470249e+01  5.39470249e+01  3.30e-13 7.28e-12  3.25e-13     0s

Barrier solved model in 15 iterations and 0.02 seconds (0.01 work units)
Optimal objective 5.39470249e+01

Crossover log...

     129 DPushes remaining with DInf 0.0000000e+00                 0s
       0 DPushes remaining with DInf 0.0000000e+00                 0s

      25 PPushes remaining with PInf 0.0000000e+00                 0s
       0 PPushes remaining with PInf 0.0000000e+00                 0s

  Push phase complete: Pinf 0.0000000e+00, Dinf 3.4017667e-13      0s

Iteration    Objective       Primal Inf.    Dual Inf.      Time
      29    5.3947025e+01   0.000000e+00   0.000000e+00      0s

Use crossover to convert LP symmetric solution to basic solution...
Crossover log...

       0 DPushes remaining with DInf 0.0000000e+00                 0s

      18 PPushes remaining with PInf 0.0000000e+00                 0s
       0 PPushes remaining with PInf 0.0000000e+00                 0s

  Push phase complete: Pinf 0.0000000e+00, Dinf 4.7615481e-13      0s

Iteration    Objective       Primal Inf.    Dual Inf.      Time
      55    5.3947025e+01   0.000000e+00   0.000000e+00      0s

Solved in 55 iterations and 0.02 seconds (0.01 work units)
Optimal objective  5.394702494e+01
